p cnf 23 25
-11 -18 -10 -20 17 -22 0
2 -9 16 10 -12 4 18 22 -13 0
23 5 -22 -2 0
-18 10 -21 0
-23 2 8 -16 15 0
-5 3 10 -16 -13 -23 -14 0
22 7 20 13 0
17 -5 18 -23 3 14 11 -21 0
-23 12 5 0
17 3 18 0
-8 16 -11 -3 0
13 21 -7 4 0
12 -9 15 -21 6 -16 0
13 14 -3 -15 -23 11 -19 -20 21 0
9 5 4 21 0
-14 11 22 -7 17 21 10 18 0
20 -21 6 19 0
23 -22 18 9 -2 0
5 -6 -8 0
-13 8 22 -17 -18 9 -21 -5 0
5 21 -7 14 0
-15 5 -13 18 -6 -3 11 -14 0
8 -5 -23 20 -10 -16 -6 22 3 0
1 0 -1 0
